(set-logic QF_S)
(declare-fun var0 () String)
(assert (str.in.re var0 (re.++ (re.union (re.union (str.to.re "0") (str.to.re "1")) (re.union (str.to.re "2") (str.to.re "3"))) (re.++ (re.+ (re.union (str.to.re "4") (str.to.re "55"))) (re.++ (re.* (re.+ (str.to.re "66"))) (re.++ (re.* (re.* (str.to.re "777"))) (re.++ (re.+ (re.+ (str.to.re "88"))) (re.++ (re.* (re.+ (str.to.re "999"))) (re.++ (re.* (re.* (str.to.re "a"))) (re.++ (re.* (re.union (str.to.re "bbb") (str.to.re "cc"))) (re.++ (re.union (re.union (str.to.re "dd") (str.to.re "e")) (re.union (str.to.re "fff") (str.to.re "ggg"))) (re.++ (re.+ (re.union (str.to.re "h") (str.to.re "iii"))) (re.++ (re.+ (re.* (str.to.re "jj"))) (re.++ (re.* (re.* (str.to.re "kk"))) (re.++ (re.* (re.* (str.to.re "lll"))) (re.++ (re.* (re.+ (str.to.re "mm"))) (re.++ (re.+ (re.* (str.to.re "nn"))) (re.++ (re.union (re.union (str.to.re "ooo") (str.to.re "p")) (re.union (str.to.re "q") (str.to.re "rrr"))) (re.++ (re.* (re.* (str.to.re "s"))) (re.++ (re.* (re.union (str.to.re "t") (str.to.re "uu"))) (re.++ (re.union (re.+ (str.to.re "v")) (re.+ (str.to.re "www"))) (re.++ (re.union (re.+ (str.to.re "xxx")) (re.+ (str.to.re "yyy"))) (re.union (re.* (str.to.re "z")) (re.* (str.to.re "AAA")))))))))))))))))))))))))
(check-sat)